CPXPARAM_TimeLimit                               3600
CPXPARAM_Read_DataCheck                          1
CPXPARAM_MIP_Limits_Solutions                    1
Parallel mode: deterministic, using up to 8 threads for concurrent optimization.
Tried aggregator 1 time.
LP Presolve eliminated 242 rows and 0 columns.
Reduced LP has 228938 rows, 72601 columns, and 822276 nonzeros.
Presolve time = 0.08 sec. (130.67 ticks)

Iteration log . . .
Iteration:     1   Dual objective     =          1227.000000
Perturbation started.
Iteration:   472   Dual objective     =          1227.000000
Iteration:   979   Dual objective     =          1227.003590
Iteration:  1142   Dual objective     =          1227.004878
Initializing dual steep norms . . .
Iteration:  1143   Dual objective     =          1227.004879
Iteration:  2907   Dual objective     =          1227.009377
Iteration:  3768   Dual objective     =          1227.010936
Iteration:  5762   Dual objective     =          1227.013086
Iteration:  6913   Dual objective     =          1227.014013
Iteration:  7796   Dual objective     =          1227.014444
Iteration:  8755   Dual objective     =          1227.015667
Iteration: 10252   Dual objective     =          1227.016832
Iteration: 11515   Dual objective     =          1227.019329
Iteration: 12886   Dual objective     =          1227.020562
Iteration: 13672   Dual objective     =          1227.021695
Iteration: 15269   Dual objective     =          1227.023373
Iteration: 16432   Dual objective     =          1227.028216
Iteration: 17706   Dual objective     =          1227.031197
Iteration: 18848   Dual objective     =          1227.032823
Iteration: 20071   Dual objective     =          1227.034443
Iteration: 21047   Dual objective     =          1241.852835
Iteration: 22495   Dual objective     =          1241.855001
Iteration: 23645   Dual objective     =          1241.859015
Iteration: 24810   Dual objective     =          1241.859894
Iteration: 25769   Dual objective     =          1241.860701
Iteration: 27058   Dual objective     =          1241.861823
Iteration: 28197   Dual objective     =          1315.268982
Iteration: 29390   Dual objective     =          1331.622925
Iteration: 30320   Dual objective     =          1353.047125
Iteration: 31238   Dual objective     =          1353.047449
Iteration: 32191   Dual objective     =          1353.048202
Iteration: 33212   Dual objective     =          1353.048509
Iteration: 34189   Dual objective     =          1361.692305
Iteration: 35477   Dual objective     =          1361.693032
Iteration: 36506   Dual objective     =          1361.693982
Iteration: 37539   Dual objective     =          1361.694323
Iteration: 38593   Dual objective     =          1361.695094
Iteration: 39485   Dual objective     =          1361.695452
Iteration: 40397   Dual objective     =          1361.696202
Iteration: 41301   Dual objective     =          1361.697574
Iteration: 42224   Dual objective     =          1361.697779
Iteration: 43126   Dual objective     =          1361.697886
Iteration: 44200   Dual objective     =          1361.698232
Iteration: 45175   Dual objective     =          1361.996790
Iteration: 46242   Dual objective     =          1361.997922
Iteration: 47304   Dual objective     =          1361.998280
Iteration: 48299   Dual objective     =          1362.003091
Iteration: 49164   Dual objective     =          1362.451359
Iteration: 49982   Dual objective     =          1362.875138
Iteration: 50925   Dual objective     =          1363.057496
Iteration: 51740   Dual objective     =          1363.435245
Iteration: 52602   Dual objective     =          1363.490386
Iteration: 53495   Dual objective     =          1386.454058
Iteration: 54496   Dual objective     =          1387.257839
Elapsed time = 19.78 sec. (10000.00 ticks, 55327 iterations)
Iteration: 55330   Dual objective     =          1390.888775
Iteration: 56176   Dual objective     =          1394.501678
Iteration: 56960   Dual objective     =          1396.415327
Iteration: 57780   Dual objective     =          1402.337629
Iteration: 58534   Dual objective     =          1410.798310
Iteration: 59243   Dual objective     =          1412.469248
Iteration: 59965   Dual objective     =          1416.415076
Iteration: 60879   Dual objective     =          1421.914900
Iteration: 61716   Dual objective     =          1431.111464
Iteration: 62578   Dual objective     =          1432.240804
Iteration: 63369   Dual objective     =          1437.059574
Iteration: 64214   Dual objective     =          1445.037437
Iteration: 65037   Dual objective     =          1448.134295
Iteration: 65983   Dual objective     =          1449.167273
Iteration: 66814   Dual objective     =          1469.407526
Iteration: 67829   Dual objective     =          1470.946433
Iteration: 68679   Dual objective     =          1471.729265
Iteration: 69518   Dual objective     =          1472.799403
Iteration: 70430   Dual objective     =          1473.728202
Iteration: 71326   Dual objective     =          1474.837754
Iteration: 72221   Dual objective     =          1475.929628
Iteration: 73181   Dual objective     =          1477.495913
Iteration: 74067   Dual objective     =          1478.248787
Iteration: 75023   Dual objective     =          1478.419717
Iteration: 75878   Dual objective     =          1482.984884
Iteration: 76947   Dual objective     =          1483.293430
Iteration: 77786   Dual objective     =          1483.792469
Iteration: 78643   Dual objective     =          1484.723679
Iteration: 79568   Dual objective     =          1484.733904
Iteration: 80593   Dual objective     =          1484.741036
Iteration: 81462   Dual objective     =          1484.741069
Iteration: 82425   Dual objective     =          1485.214403
Iteration: 83342   Dual objective     =          1485.610122
Iteration: 84287   Dual objective     =          1485.802355
Iteration: 85242   Dual objective     =          1485.827529
Iteration: 86170   Dual objective     =          1485.834278
Iteration: 87113   Dual objective     =          1485.835176
Iteration: 88133   Dual objective     =          1486.733813
Iteration: 89166   Dual objective     =          1487.076607
Iteration: 90064   Dual objective     =          1487.615173
Iteration: 91018   Dual objective     =          1487.681625
Iteration: 92059   Dual objective     =          1487.694388
Iteration: 93055   Dual objective     =          1487.702198
Iteration: 94102   Dual objective     =          1487.917027
Iteration: 95168   Dual objective     =          1488.754976
Iteration: 96186   Dual objective     =          1488.804620
Iteration: 97245   Dual objective     =          1488.804689
Iteration: 98031   Dual objective     =          1488.804738
Iteration: 98870   Dual objective     =          1488.808152
Iteration: 99825   Dual objective     =          1488.969189
Iteration: 100823   Dual objective     =          1492.367392
Elapsed time = 33.16 sec. (20009.59 ticks, 101788 iterations)
Iteration: 101788   Dual objective     =          1492.394539
Iteration: 102709   Dual objective     =          1492.952992
Iteration: 103657   Dual objective     =          1493.034194
Iteration: 104646   Dual objective     =          1493.034349
Iteration: 105578   Dual objective     =          1501.017945
Iteration: 106860   Dual objective     =          1503.725397
Iteration: 108024   Dual objective     =          1503.749281
Iteration: 109215   Dual objective     =          1503.752036
Iteration: 110401   Dual objective     =          1503.755250
Iteration: 111378   Dual objective     =          1503.755993
Iteration: 112307   Dual objective     =          1503.756236
Iteration: 113708   Dual objective     =          1521.839812
Iteration: 114840   Dual objective     =          1524.693553
Iteration: 115862   Dual objective     =          1524.694949
Iteration: 116956   Dual objective     =          1524.696197
Iteration: 117919   Dual objective     =          1524.697304
Iteration: 118705   Dual objective     =          1524.697908
Iteration: 119539   Dual objective     =          1524.698112
Iteration: 120241   Dual objective     =          1524.698203
Iteration: 120874   Dual objective     =          1524.696899
Iteration: 122165   Dual objective     =          1526.034315
Iteration: 123273   Dual objective     =          1526.034864
Iteration: 124329   Dual objective     =          1526.035141
Iteration: 125066   Dual objective     =          1526.035264
Iteration: 125862   Dual objective     =          1526.035369
Iteration: 126806   Dual objective     =          1526.036273
Iteration: 128065   Dual objective     =          1529.385336
Iteration: 129110   Dual objective     =          1530.354988
Iteration: 130027   Dual objective     =          1530.355096
Iteration: 130990   Dual objective     =          1530.355197
Iteration: 131677   Dual objective     =          1530.355222
Iteration: 132655   Dual objective     =          1530.503432
Iteration: 133820   Dual objective     =          1533.502262
Iteration: 134884   Dual objective     =          1533.502392
Iteration: 135810   Dual objective     =          1533.502455
Iteration: 136525   Dual objective     =          1533.502483
Iteration: 137411   Dual objective     =          1533.502514
Iteration: 138178   Dual objective     =          1533.502529
Iteration: 139247   Dual objective     =          1537.690129
Iteration: 140376   Dual objective     =          1537.690615
Iteration: 141349   Dual objective     =          1537.689605
Iteration: 142269   Dual objective     =          1537.689658
Iteration: 142922   Dual objective     =          1537.689715
Iteration: 143709   Dual objective     =          1537.689761
Iteration: 144869   Dual objective     =          1537.690189
Iteration: 145792   Dual objective     =          1537.690287
Iteration: 146575   Dual objective     =          1537.690329
Iteration: 147284   Dual objective     =          1537.690385
Iteration: 148072   Dual objective     =          1537.690443
Iteration: 148883   Dual objective     =          1537.690458
Iteration: 149984   Dual objective     =          1537.691162
Iteration: 151043   Dual objective     =          1537.691376
Iteration: 152019   Dual objective     =          1537.691425
Iteration: 152849   Dual objective     =          1537.691470
Elapsed time = 42.84 sec. (30009.72 ticks, 153510 iterations)
Iteration: 153612   Dual objective     =          1537.691486
Iteration: 154584   Dual objective     =          1540.127893
Iteration: 155792   Dual objective     =          1540.128192
Iteration: 156927   Dual objective     =          1540.128575
Iteration: 157802   Dual objective     =          1540.128706
Iteration: 158600   Dual objective     =          1540.128772
Iteration: 159377   Dual objective     =          1540.128791
Iteration: 160529   Dual objective     =          1540.128460
Iteration: 161473   Dual objective     =          1540.128559
Iteration: 162219   Dual objective     =          1540.128596
Iteration: 162949   Dual objective     =          1540.128646
Iteration: 163697   Dual objective     =          1540.128663
Iteration: 164566   Dual objective     =          1545.021916
Iteration: 165653   Dual objective     =          1545.022224
Iteration: 166625   Dual objective     =          1545.022296
Iteration: 167515   Dual objective     =          1545.022337
Iteration: 168248   Dual objective     =          1545.022349
Iteration: 168961   Dual objective     =          1545.022354
Iteration: 170112   Dual objective     =          1545.022593
Iteration: 171053   Dual objective     =          1545.022680
Iteration: 171690   Dual objective     =          1545.022723
Iteration: 172315   Dual objective     =          1545.022745
Iteration: 172932   Dual objective     =          1545.022758
Iteration: 173525   Dual objective     =          1545.022767
Iteration: 174625   Dual objective     =          1545.022941
Iteration: 175538   Dual objective     =          1545.023022
Iteration: 176199   Dual objective     =          1545.023079
Iteration: 176839   Dual objective     =          1545.023113
Iteration: 177397   Dual objective     =          1545.023129
Iteration: 177916   Dual objective     =          1545.023134
Iteration: 178958   Dual objective     =          1545.023303
Iteration: 179751   Dual objective     =          1545.023329
Iteration: 180393   Dual objective     =          1545.023363
Iteration: 181038   Dual objective     =          1545.022895
Iteration: 181651   Dual objective     =          1545.022903
Iteration: 182362   Dual objective     =          1545.022916
Iteration: 183227   Dual objective     =          1545.022953
Iteration: 183854   Dual objective     =          1545.676113
Iteration: 184419   Dual objective     =          1545.676126
Iteration: 184984   Dual objective     =          1545.676132
Iteration: 185613   Dual objective     =          1545.676155
Iteration: 186374   Dual objective     =          1545.676181
Iteration: 186985   Dual objective     =          1545.676210
Iteration: 187570   Dual objective     =          1545.676227
Iteration: 188175   Dual objective     =          1545.676237
Elapsed time = 71.35 sec. (40010.22 ticks, 188208 iterations)
Iteration: 188759   Dual objective     =          1545.676241
Iteration: 189558   Dual objective     =          1545.676306
Iteration: 190249   Dual objective     =          1545.676343
Iteration: 190826   Dual objective     =          1545.676369
Iteration: 191396   Dual objective     =          1545.676375
Iteration: 191979   Dual objective     =          1545.676380
Iteration: 192657   Dual objective     =          1545.676401
Iteration: 193271   Dual objective     =          1545.676446
Iteration: 193811   Dual objective     =          1545.676476
Iteration: 194341   Dual objective     =          1545.676495
Iteration: 194891   Dual objective     =          1545.676507
Iteration: 195418   Dual objective     =          1545.676511
Iteration: 195990   Dual objective     =          1545.676544
Iteration: 196507   Dual objective     =          1545.676569
Iteration: 197045   Dual objective     =          1545.676584
Iteration: 197650   Dual objective     =          1545.676591
Iteration: 198276   Dual objective     =          1545.676617
Iteration: 199176   Dual objective     =          1545.676648
Iteration: 199789   Dual objective     =          1545.676671
Iteration: 200358   Dual objective     =          1545.676681
Iteration: 201025   Dual objective     =          1545.675633
Iteration: 201637   Dual objective     =          1545.675648
Iteration: 202212   Dual objective     =          1545.675654
Iteration: 202809   Dual objective     =          1545.675656
Iteration: 203390   Dual objective     =          1545.675679
Iteration: 203940   Dual objective     =          1545.675698
Iteration: 204486   Dual objective     =          1545.675708
Iteration: 205185   Dual objective     =          1545.675767
Iteration: 205702   Dual objective     =          1545.675774
Iteration: 206242   Dual objective     =          1545.675799
Iteration: 206855   Dual objective     =          1545.675821
Iteration: 207412   Dual objective     =          1545.675829
Iteration: 207935   Dual objective     =          1545.675838
Iteration: 208381   Dual objective     =          1545.675843
Elapsed time = 106.28 sec. (50010.50 ticks, 208584 iterations)
Iteration: 208923   Dual objective     =          1545.675851
Iteration: 209508   Dual objective     =          1545.675854
Iteration: 210045   Dual objective     =          1545.675856
Iteration: 210529   Dual objective     =          1545.675858
Iteration: 211055   Dual objective     =          1545.675859
Removing perturbation.

Dual simplex solved model.

